26
1 0 39
2 0 48
2 1 34
3 0 44
3 1 38
3 2 69
4 0 44
4 1 14
4 2 44
4 3 70
5 0 8
5 1 59
5 2 6
5 3 13
5 4 65
6 0 35
6 1 57
6 2 43
6 3 52
6 4 42
6 5 42
7 0 34
7 1 21
7 2 18
7 3 9
7 4 3
7 5 54
7 6 20
8 0 38
8 1 16
8 2 34
8 3 49
8 4 41
8 5 18
8 6 56
8 7 44
9 0 40
9 1 7
9 2 62
9 3 56
9 4 59
9 5 11
9 6 51
9 7 28
9 8 30
10 0 57
10 1 54
10 2 45
10 3 3
10 4 60
10 5 52
10 6 26
10 7 41
10 8 41
10 9 57
11 0 44
11 1 56
11 2 17
11 3 69
11 4 6
11 5 65
11 6 17
11 7 29
11 8 37
11 9 22
11 10 6
12 0 9
12 1 1
12 2 15
12 3 8
12 4 13
12 5 19
12 6 42
12 7 31
12 8 32
12 9 37
12 10 34
12 11 40
13 0 23
13 1 53
13 2 69
13 3 56
13 4 9
13 5 11
13 6 25
13 7 22
13 8 14
13 9 16
13 10 39
13 11 27
13 12 51
14 0 54
14 1 16
14 2 22
14 3 51
14 4 54
14 5 68
14 6 7
14 7 2
14 8 67
14 9 23
14 10 40
14 11 68
14 12 27
14 13 10
15 0 60
15 1 11
15 2 29
15 3 52
15 4 26
15 5 41
15 6 7
15 7 30
15 8 30
15 9 61
15 10 35
15 11 15
15 12 38
15 13 34
15 14 51
16 0 41
16 1 45
16 2 15
16 3 48
16 4 69
16 5 8
16 6 16
16 7 47
16 8 10
16 9 13
16 10 28
16 11 30
16 12 28
16 13 69
16 14 59
16 15 22
17 0 55
17 1 45
17 2 69
17 3 46
17 4 36
17 5 65
17 6 14
17 7 32
17 8 68
17 9 23
17 10 17
17 11 61
17 12 34
17 13 54
17 14 57
17 15 30
17 16 37
18 0 14
18 1 68
18 2 55
18 3 69
18 4 55
18 5 26
18 6 14
18 7 47
18 8 35
18 9 24
18 10 38
18 11 24
18 12 16
18 13 35
18 14 7
18 15 57
18 16 51
18 17 17
19 0 44
19 1 57
19 2 14
19 3 24
19 4 42
19 5 63
19 6 9
19 7 46
19 8 11
19 9 32
19 10 42
19 11 27
19 12 50
19 13 37
19 14 39
19 15 43
19 16 66
19 17 13
19 18 28
20 0 4
20 1 36
20 2 37
20 3 67
20 4 5
20 5 2
20 6 35
20 7 66
20 8 41
20 9 4
20 10 26
20 11 5
20 12 24
20 13 62
20 14 19
20 15 51
20 16 46
20 17 45
20 18 8
20 19 58
21 0 42
21 1 2
21 2 16
21 3 6
21 4 21
21 5 30
21 6 70
21 7 1
21 8 57
21 9 35
21 10 44
21 11 24
21 12 43
21 13 20
21 14 51
21 15 40
21 16 56
21 17 43
21 18 34
21 19 67
21 20 44
22 0 11
22 1 29
22 2 10
22 3 49
22 4 39
22 5 70
22 6 7
22 7 8
22 8 34
22 9 70
22 10 21
22 11 35
22 12 23
22 13 45
22 14 10
22 15 35
22 16 19
22 17 43
22 18 2
22 19 13
22 20 37
22 21 19
23 0 52
23 1 47
23 2 17
23 3 21
23 4 61
23 5 49
23 6 27
23 7 7
23 8 47
23 9 68
23 10 32
23 11 38
23 12 18
23 13 43
23 14 57
23 15 43
23 16 22
23 17 70
23 18 13
23 19 26
23 20 44
23 21 51
23 22 39
24 0 15
24 1 1
24 2 47
24 3 17
24 4 13
24 5 47
24 6 15
24 7 23
24 8 2
24 9 59
24 10 7
24 11 28
24 12 5
24 13 25
24 14 52
24 15 20
24 16 21
24 17 32
24 18 43
24 19 33
24 20 70
24 21 5
24 22 14
24 23 15
25 0 70
25 1 17
25 2 50
25 3 30
25 4 27
25 5 38
25 6 26
25 7 10
25 8 2
25 9 41
25 10 10
25 11 1
25 12 40
25 13 69
25 14 8
25 15 58
25 16 38
25 17 33
25 18 61
25 19 44
25 20 50
25 21 59
25 22 46
25 23 30
25 24 70
